p cnf 12 50 
8 4 1 0
1 -4 -9 0
8 -4 12 0
-2 -11 -10 0
3 -2 1 0
2 12 -8 0
2 -7 3 0
-3 12 11 0
-12 5 -11 0
2 6 -7 0
11 9 3 0
-10 9 -11 0
-4 -11 2 0
-1 12 -6 0
-11 -10 -5 0
7 5 -12 0
1 10 2 0
-3 10 -8 0
6 3 11 0
-11 -12 5 0
-12 2 7 0
-2 -3 -8 0
-2 -8 12 0
-3 12 -5 0
-11 4 7 0
3 -10 12 0
4 -5 10 0
2 10 5 0
5 4 12 0
-9 -12 -3 0
-10 9 12 0
11 -7 -6 0
8 10 12 0
4 11 1 0
-6 -10 -12 0
-8 6 -9 0
9 6 -3 0
2 -9 -7 0
-12 -5 4 0
6 -12 9 0
-7 -10 -9 0
5 11 3 0
-6 3 -1 0
-7 -8 1 0
-4 9 12 0
-2 9 -8 0
11 5 -12 0
9 -5 11 0
-8 6 10 0
1 4 -8 0
